0 2105
1 1900
2 1900
3 1900
4 1806
5 1793
6 1777
7 1602
8 1602
9 1602
10 1602
11 1602
12 1539
13 1539
14 1539
15 1539
16 1539
17 1505
18 1505
19 1424
20 1424
21 1424
22 1398
23 1398
24 1398
25 1398
26 1398
27 1398
28 1398
29 1398
30 1398
31 1398
32 1325
33 1325
34 1325
35 1325
36 1325
37 1325
38 1289
39 1289
40 1289
41 1289
42 1263
43 1263
44 1263
45 1263
46 1263
47 1263
48 1263
49 1263
50 1263
51 1263
52 1263
53 1263
54 1263
55 1263
56 1263
57 1263
58 1263
59 1263
60 1263
61 1263
62 1263
63 1263
64 1263
65 1263
66 1263
67 1263
68 1263
69 1263
70 1263
71 1258
72 1258
73 1258
74 1258
75 1258
76 1258
77 1257
78 1257
79 1257
80 1257
81 1257
82 1256
83 1229
84 1229
85 1229
86 1229
87 1229
88 1227
89 1227
90 1227
91 1206
92 1206
93 1206
94 1206
95 1206
96 1206
97 1206
98 1191
99 1191
100 1191
101 1191
102 1191
103 1184
104 1161
105 1161
106 1161
107 1161
108 1158
109 1158
110 1158
111 1158
112 1158
113 1158
114 1158
115 1157
116 1157
117 1157
118 1157
119 1157
120 1157
121 1157
122 1157
123 1157
124 1157
125 1157
126 1157
127 1157
128 1157
129 1157
130 1157
131 1157
132 1157
133 1157
134 1157
135 1157
136 1141
137 1141
138 1141
139 1141
140 1141
141 1141
142 1141
143 1141
144 1141
145 1141
146 1141
147 1141
148 1141
149 1141
150 1141
151 1141
152 1141
153 1141
154 1141
155 1141
156 1141
157 1141
158 1141
159 1141
160 1141
161 1141
162 1141
163 1141
164 1141
165 1141
166 1141
167 1141
168 1141
169 1141
170 1141
171 1140
172 1140
173 1138
174 1138
175 1138
176 1138
177 1138
178 1137
179 1137
180 1137
181 1131
182 1131
183 1131
184 1128
185 1128
186 1128
187 1128
188 1128
189 1128
190 1128
191 1128
192 1128
193 1128
194 1128
195 1128
196 1128
197 1128
198 1128
199 1128
200 1128
201 1128
202 1128
203 1128
204 1128
205 1128
206 1128
207 1128
208 1128
209 1128
210 1128
211 1128
212 1128
213 1128
214 1128
215 1101
216 1101
217 1101
218 1101
219 1101
220 1088
221 1088
222 1088
223 1088
224 1088
225 1088
226 1088
227 1081
228 1081
229 1081
230 1081
231 1081
232 1081
233 1076
234 1076
235 1076
236 1076
237 1069
238 1069
239 1069
240 1069
241 1069
242 1069
243 1069
244 1069
245 1069
246 1069
247 1069
248 1045
249 1045
250 1045
251 1045
252 1045
253 1045
254 1045
255 1045
256 1045
257 1045
258 1045
259 1045
260 1045
261 1045
262 1045
263 1045
264 1045
265 1045
266 1045
267 1045
268 1045
269 1045
270 1045
271 1045
272 1045
273 1045
274 1045
275 1045
276 1045
277 1045
278 1045
279 1045
280 1045
281 1045
282 1045
283 1045
284 1045
285 1045
286 1045
287 1045
288 1045
289 1045
290 1045
291 1045
292 1045
293 1045
294 1045
295 1045
296 1045
297 1045
298 1045
299 1045
300 1045
301 1045
302 1045
303 1045
304 1045
305 1045
306 1045
307 1045
308 1045
309 1045
310 1045
311 1043
312 1043
313 1043
314 1043
315 1043
316 1043
317 1043
318 1043
319 1043
320 1043
321 1043
322 1043
323 1043
324 1043
325 1043
326 1043
327 1043
328 1043
329 1043
330 1043
331 1043
332 1043
333 1043
334 1043
335 1043
336 1043
337 1043
338 1043
339 1043
340 1043
341 1043
342 1043
343 1043
344 1043
345 1043
346 1043
347 1043
348 1043
349 1043
350 1043
351 1043
352 1043
353 1043
354 1043
355 1043
356 1043
357 1043
358 1043
359 1043
360 1043
361 1043
362 1043
363 1043
364 1043
365 1043
366 1043
367 1043
368 1043
369 1043
370 1043
371 1043
372 1043
373 1043
374 1043
375 1043
376 1043
377 1043
378 1043
379 1043
380 1043
381 1043
382 1043
383 1043
384 1043
385 1043
386 1043
387 1043
388 1043
389 1043
390 1043
391 1043
392 1043
393 1043
394 1043
395 1043
396 1043
397 1043
398 1043
399 1043
400 1043
401 1043
402 1043
403 1043
404 1043
405 1043
406 1043
407 1043
408 1043
409 1043
410 1043
411 1043
412 1043
413 1043
414 1043
415 1043
416 1043
417 1043
418 1043
419 1043
420 1043
421 1043
422 1043
423 1043
424 1043
425 1043
426 1043
427 1043
428 1043
429 1043
430 1043
431 1043
432 1043
433 1043
434 1043
435 1043
436 1043
437 1043
438 1043
439 1043
440 1043
441 1043
442 1043
443 1043
444 1043
445 1043
446 1043
447 1043
448 1043
449 1043
450 1043
451 1043
452 1043
453 1043
454 1043
455 1043
456 1043
457 1043
458 1043
459 1043
460 1043
461 1043
462 1043
463 1043
464 1043
465 1043
466 1043
467 1043
468 1043
469 1043
470 1043
471 1043
472 1043
473 1043
474 1043
475 1043
476 1043
477 1043
478 1043
479 1043
480 1043
481 1043
482 1043
483 1043
484 1043
485 1043
486 1043
487 1043
488 1043
489 1043
490 1043
491 1043
492 1043
493 1043
494 1043
495 1043
496 1043
497 1043
498 1043
499 1043
500 1043
501 1043
502 1043
503 1043
504 1043
505 1043
506 1043
507 1043
508 1043
509 1043
510 1043
511 1043
512 1043
513 1043
514 1043
515 1043
516 1043
517 1043
518 1043
519 1043
520 1043
521 1043
522 1043
523 1043
524 1043
525 1043
526 1043
527 1043
528 1043
529 1043
530 1043
531 1043
532 1043
533 1043
534 1043
535 1043
536 1043
537 1043
538 1043
539 1043
540 1043
541 1043
542 1043
543 1043
544 1043
545 1043
546 1043
547 1043
548 1043
549 1043
550 1043
551 1043
552 1043
553 1043
554 1043
555 1043
556 1043
557 1043
558 1043
559 1043
560 1043
561 1043
562 1043
563 1043
564 1043
565 1043
566 1043
567 1043
568 1043
569 1043
570 1043
571 1043
572 1043
573 1043
574 1043
575 1043
576 1043
577 1043
578 1043
579 1043
580 1043
581 1043
582 1043
583 1043
584 1043
585 1043
586 1043
587 1043
588 1043
589 1043
590 1043
591 1043
592 1043
593 1043
594 1043
595 1043
596 1043
597 1043
598 1043
599 1043
600 1043
601 1043
602 1043
603 1043
604 1043
605 1043
606 1043
607 1043
608 1043
609 1043
610 1043
611 1043
612 1043
613 1043
614 1043
615 1043
616 1043
617 1043
618 1043
619 1043
620 1043
621 1043
622 1043
623 1043
624 1043
625 1043
626 1043
627 1043
628 1043
629 1043
630 1043
631 1043
632 1043
633 1043
634 1043
635 1043
636 1043
637 1043
638 1043
639 1043
640 1043
641 1043
642 1043
643 1043
644 1043
645 1043
646 1043
647 1043
648 1043
649 1043
650 1043
651 1043
652 1043
653 1043
654 1043
655 1043
656 1043
657 1043
658 1043
659 1043
660 1043
661 1043
662 1043
663 1043
664 1043
665 1043
666 1043
667 1043
668 1043
669 1043
670 1043
671 1043
672 1043
673 1043
674 1043
675 1043
676 1043
677 1043
678 1043
679 1043
680 1043
681 1043
682 1043
683 1043
684 1043
685 1043
686 1043
687 1043
688 1043
689 1043
690 1043
691 1043
692 1043
693 1043
694 1043
695 1043
696 1043
697 1043
698 1043
699 1043
700 1043
701 1043
702 1043
703 1043
704 1043
705 1043
706 1043
707 1043
708 1043
709 1043
710 1043
711 1043
712 1043
713 1043
714 1043
715 1043
716 1043
717 1043
718 1043
719 1043
720 1043
721 1043
722 1043
723 1043
724 1043
725 1043
726 1043
727 1043
728 1043
729 1043
730 1043
731 1043
732 1043
733 1043
734 1043
735 1043
736 1043
737 1043
738 1043
739 1043
740 1043
741 1043
742 1043
743 1043
744 1043
745 1043
746 1043
747 1043
748 1043
749 1043
750 1043
751 1043
752 1043
753 1043
754 1043
755 1043
756 1043
757 1043
758 1043
759 1043
760 1043
761 1043
762 1043
763 1043
764 1043
765 1043
766 1043
767 1043
768 1043
769 1043
770 1043
771 1043
772 1043
773 1043
774 1043
775 1043
776 1043
777 1043
778 1043
779 1043
780 1043
781 1043
782 1043
783 1043
784 1043
785 1043
786 1043
787 1043
788 1043
789 1043
790 1043
791 1043
792 1043
793 1043
794 1043
795 1043
796 1043
797 1043
798 1043
799 1043
800 1043
801 1043
802 1043
803 1043
804 1043
805 1043
806 1043
807 1043
808 1043
809 1043
810 1043
811 1043
812 1043
813 1043
814 1043
815 1043
816 1043
817 1043
818 1043
819 1043
820 1043
821 1043
822 1043
823 1043
824 1043
825 1043
826 1043
827 1043
828 1043
829 1043
830 1043
831 1043
832 1043
833 1043
834 1043
835 1043
836 1043
837 1043
838 1043
839 1043
840 1043
841 1043
842 1043
843 1043
844 1043
845 1043
846 1043
847 1043
848 1043
849 1043
850 1043
851 1043
852 1043
853 1043
854 1043
855 1043
856 1043
857 1043
858 1043
859 1043
860 1043
861 1043
862 1043
863 1043
864 1043
865 1043
866 1043
867 1043
868 1043
869 1043
870 1043
871 1043
872 1043
873 1043
874 1043
875 1043
876 1043
877 1043
878 1043
879 1043
880 1043
881 1043
882 1043
883 1043
884 1043
885 1043
886 1043
887 1043
888 1043
889 1043
890 1043
891 1043
892 1043
893 1043
894 1043
895 1043
896 1043
897 1043
898 1043
899 1043
900 1043
901 1043
902 1043
903 1043
904 1043
905 1043
906 1043
907 1043
908 1043
909 1043
910 1043
911 1043
912 1043
913 1043
914 1043
915 1043
916 1043
917 1043
918 1043
919 1043
920 1043
921 1043
922 1043
923 1043
924 1043
925 1043
926 1043
927 1043
928 1043
929 1043
930 1043
931 1043
932 1043
933 1043
934 1043
935 1043
936 1043
937 1043
938 1043
939 1043
940 1043
941 1043
942 1043
943 1043
944 1043
945 1043
946 1043
947 1043
948 1043
949 1043
950 1043
951 1043
952 1043
953 1043
954 1043
955 1043
956 1043
957 1043
958 1043
959 1043
960 1043
961 1043
962 1043
963 1043
964 1043
965 1043
966 1043
967 1043
968 1043
969 1043
970 1043
971 1043
972 1043
973 1043
974 1043
975 1043
976 1043
977 1043
978 1043
979 1043
980 1043
981 1043
982 1043
983 1043
984 1043
985 1043
986 1043
987 1043
988 1043
989 1043
990 1043
991 1043
992 1043
993 1043
994 1043
995 1043
996 1043
997 1043
998 1043
999 1043
Best: [[30,11,16,23,18,20,32,22],
       [24,4,3,14,8,2,13],
       [21,26,6,28,25,17],
       [31,27,7,19,10,9,12,5,29,15]], fitness: 1043
